&CONTROL
         calculation = 'scf',
        restart_mode = 'from_scratch',
              prefix = './cs',
          pseudo_dir = '~/PseudoPotential/upf',
              outdir = './',
          wf_collect = .true.,
/
&SYSTEM
               ibrav = 1,
           celldm(1) = 30,
                 nat = 2,
                ntyp = 2,
             ecutwfc = 85,
               nosym = .true.,
                nbnd = 100,
     assume_isolated = 'mp',
/
&ELECTRONS
            conv_thr = 1.0d-6,
         mixing_mode = 'plain',
         mixing_beta = 0.40d0,
    electron_maxstep = 70,
/
ATOMIC_SPECIES
 C   1.00    C_ONCV_PBE-1.0.upf
 S   1.00    S_ONCV_PBE-1.0.upf
ATOMIC_POSITIONS {Angstrom}
C    .000000    .000000    -1.123382
S    .000000    .000000    .421268
