&control
    calculation='scf',
    restart_mode='from_scratch',
    prefix='si-gbrv'
    wf_collect=.true.
    pseudo_dir='./',
    outdir='./',
 /
 &system
    ibrav = 1,
    celldm(1) = 20.528,
    nat=64,
    ntyp=1,
    ecutwfc = 40,
    nbnd = 250,
    nosym=.true.
 /
 &electrons
    mixing_beta = 0.7
 /
 ATOMIC_SPECIES
    Si  28.086 si_pbe_v1.uspp.F.UPF
 ATOMIC_POSITIONS (angstrom)
  Si    0.6789340910    0.6789340910    0.6789340910
  Si    3.3946704550    3.3946704550    0.6789340910
  Si    3.3946704550    0.6789340910    3.3946704550
  Si    0.6789340910    3.3946704550    3.3946704550
  Si    2.0368022730    2.0368022730    4.7525386370
  Si    0.6789340910    0.6789340910    6.1104068190
  Si    3.3946704550    3.3946704550    6.1104068190
  Si    3.3946704550    0.6789340910    8.8261431830
  Si    0.6789340910    3.3946704550    8.8261431830
  Si    2.0368022730    2.0368022730   10.1840113650
  Si    2.0368022730    4.7525386370    2.0368022730
  Si    0.6789340910    6.1104068190    0.6789340910
  Si    3.3946704550    8.8261431830    0.6789340910
  Si    3.3946704550    6.1104068190    3.3946704550
  Si    0.6789340910    8.8261431830    3.3946704550
  Si    2.0368022730    7.4682750010    4.7525386370
  Si    2.0368022730    4.7525386370    7.4682750010
  Si    0.6789340910    6.1104068190    6.1104068190
  Si    3.3946704550    8.8261431830    6.1104068190
  Si    3.3946704550    6.1104068190    8.8261431830
  Si    0.6789340910    8.8261431830    8.8261431830
  Si    2.0368022730    7.4682750010   10.1840113650
  Si    2.0368022730   10.1840113650    2.0368022730
  Si    2.0368022730   10.1840113650    7.4682750010
  Si    4.7525386370    2.0368022730    2.0368022730
  Si    6.1104068190    0.6789340910    0.6789340910
  Si    8.8261431830    3.3946704550    0.6789340910
  Si    8.8261431830    0.6789340910    3.3946704550
  Si    6.1104068190    3.3946704550    3.3946704550
  Si    7.4682750010    2.0368022730    4.7525386370
  Si    4.7525386370    2.0368022730    7.4682750010
  Si    6.1104068190    0.6789340910    6.1104068190
  Si    8.8261431830    3.3946704550    6.1104068190
  Si    8.8261431830    0.6789340910    8.8261431830
  Si    6.1104068190    3.3946704550    8.8261431830
  Si    7.4682750010    2.0368022730   10.1840113650
  Si    7.4682750010    4.7525386370    2.0368022730
  Si    4.7525386370    7.4682750010    2.0368022730
  Si    6.1104068190    6.1104068190    0.6789340910
  Si    8.8261431830    8.8261431830    0.6789340910
  Si    8.8261431830    6.1104068190    3.3946704550
  Si    6.1104068190    8.8261431830    3.3946704550
  Si    4.7525386370    4.7525386370    4.7525386370
  Si    7.4682750010    7.4682750010    4.7525386370
  Si    7.4682750010    4.7525386370    7.4682750010
  Si    4.7525386370    7.4682750010    7.4682750010
  Si    6.1104068190    6.1104068190    6.1104068190
  Si    8.8261431830    8.8261431830    6.1104068190
  Si    8.8261431830    6.1104068190    8.8261431830
  Si    6.1104068190    8.8261431830    8.8261431830
  Si    4.7525386370    4.7525386370   10.1840113650
  Si    7.4682750010    7.4682750010   10.1840113650
  Si    7.4682750010   10.1840113650    2.0368022730
  Si    4.7525386370   10.1840113650    4.7525386370
  Si    7.4682750010   10.1840113650    7.4682750010
  Si    4.7525386370   10.1840113650   10.1840113650
  Si    10.1840113650    2.0368022730    2.0368022730
  Si    10.1840113650    2.0368022730    7.4682750010
  Si    10.1840113650    7.4682750010    2.0368022730
  Si    10.1840113650    4.7525386370    4.7525386370
  Si    10.1840113650    7.4682750010    7.4682750010
  Si    10.1840113650    4.7525386370   10.1840113650
  Si    10.1840113650   10.1840113650    4.7525386370
  Si    10.1840113650   10.1840113650   10.1840113650
