&control
   calculation='scf'
   restart_mode='from_scratch',
   prefix='interface-oncv',
   pseudo_dir = './',
   outdir='./',
   wf_collect = .true.
/
&system
   ibrav=  0,
   nat  =  264,
   ntyp =  2,
   ecutwfc = 70.0,
   nbnd    = 700,
   nosym=.true.
/
&electrons
   diagonalization='david',
 !  conv_thr =  1.0d-8,
   electron_maxstep = 150
   diago_full_acc = .TRUE.
/
CELL_PARAMETERS {cubic}
20.5290  0.0      0.0
0.0      20.5290  0.0
0.0      0.0      60.6675
ATOMIC_SPECIES
N   14.00674 N_ONCV_PBE-1.0.upf
Si  28.0855  Si_ONCV_PBE-1.1.upf
ATOMIC_POSITIONS {angstrom}
Si      10.557849282   0.204270264   0.249855493
Si       2.337738327   2.787145764   0.175855879
Si       2.613317171  10.821267228   2.886869919
Si      10.716722765   2.727043278   2.849935809
Si       1.242508603   1.310848610   1.584168619
Si       4.581532501   2.942172234   0.539485166
Si       3.987101948   1.313971944   4.183791847
Si       1.237120348   3.972777355   4.263218520
Si      -0.019803367  10.803536390   5.556876291
Si       2.671631977   2.666756188   5.554346557
Si       2.719970644  10.805465694   8.228103786
Si      10.795181101   2.631049324   8.229485896
Si       1.343786939   1.287816091   6.903306328
Si       4.008724850   4.062878529   6.874470695
Si       4.047320856   1.337630694   9.566540695
Si       1.267282804   4.012216679   9.570338923
Si      10.808766384  10.778315603  10.826103970
Si       2.593791473   2.612475236  10.897242987
Si       2.731319579  10.767212941  13.512050580
Si      10.895830627   2.720171294  13.669457985
Si       1.223396900   1.218737045  12.257297350
Si       4.025126812   4.022985494  12.085210444
Si       3.500214520   1.753882751  14.705903545
Si       1.950548737   3.588457813  14.628707354
Si      10.501503742   5.779078449   0.232142508
Si       2.323041810   8.563537891  32.115520539
Si       2.137710589   5.718878217   2.980233553
Si       0.492241797   7.458073767   3.201011450
Si       0.235065230   7.917856005   0.998694756
Si       3.949990320   9.662873455   1.386549768
Si       3.982430877   6.773277387   4.062032081
Si       1.326995796   9.399680819   4.241725514
Si      10.735783620   5.303638745   5.608553262
Si       2.710039435   8.078110704   5.563664333
Si       2.637961613   5.378652140   8.235656982
Si      10.785070146   8.094300743   8.177940230
Si       1.281747544   6.716405719   6.856636393
Si       4.058589362   9.447906360   6.879980756
Si       4.051461099   6.742843123   9.522850615
Si       1.303841015   9.446066471   9.485094108
Si      10.825769357   5.418608040  10.937025069
Si       2.681268245   8.118858659  10.817049343
Si       2.719417269   5.425919209  13.454667448
Si      10.808119545   8.221380246  13.501769575
Si       1.335100718   6.833361195  12.214412994
Si       4.047867782   9.524975932  12.073504114
Si       4.370939842   6.564011500  14.625734699
Si       1.537278538   9.278103209  14.874789252
Si       5.648573036   0.023923966   0.238245125
Si       8.245809203   2.491921281   0.387025949
Si       8.250204243  10.606393057   3.077921016
Si       5.400599295   2.550959478   2.767175212
Si       6.946597067   1.151432032   1.772007524
Si       9.335460129   4.201179471   1.542914432
Si       9.471680320   1.325745873   4.263094435
Si       6.647419733   4.038838410   4.117233687
Si       5.363187112  -0.036672490   5.526093162
Si       8.012788422   2.674827781   5.510845352
Si       8.092269437  10.858733642   8.234509314
Si       5.383110797   2.723776979   8.237428270
Si       6.697042887   1.320616188   6.888157321
Si       9.394655060   3.952790924   6.913342062
Si       9.431596300   1.351580581   9.621915844
Si       6.784049525   4.026999125   9.622692218
Si       5.489815042  10.841714222  10.828441848
Si       8.163513900   2.761745220  11.060631637
Si       8.358367549  -0.032428526  13.665842422
Si       5.289189852   2.541336716  13.391570801
Si       6.856642844   1.226394935  12.285727380
Si       9.519885193   4.196209851  12.461598416
Si       9.711286254   1.306255685  15.124334774
Si       6.577920917   3.947700159  14.649912155
Si       5.392820097   5.929337726  31.952654651
Si       8.060238986   8.663159407  31.888593981
Si       7.944278189   5.493740935   2.849984936
Si       5.299804154   8.148588450   2.674549299
Si       6.844110757   6.951154972   1.371610529
Si       9.433575948   9.452718812   1.436056471
Si       9.417203372   6.668350318   4.244483385
Si       6.639534408   9.371602546   4.204756068
Si       5.307434420   5.397896588   5.449165862
Si       8.079388939   8.089199363   5.539381874
Si       8.093290718   5.357493495   8.237258550
Si       5.417267426   8.068951521   8.168514450
Si       6.740196722   6.675843872   6.831684178
Si       9.423492009   9.491010888   6.870888323
Si       9.454427132   6.739747114   9.562720181
Si       6.765144509   9.417744670   9.507757632
Si       5.427398894   5.428770707  10.892081659
Si       8.060360879   8.062886268  10.902282602
Si       8.134017521   5.536970546  13.911196531
Si       5.408915580   8.366281516  13.515330094
Si       6.759777560   6.761103396  12.354750344
Si       9.441785880   9.457898413  12.152681079
Si      10.773244337   6.942209376  15.437676127
Si       6.751473021   9.767246274  14.939108322
Si       5.181756347   3.012586703  18.780877236
Si       8.634655938   1.693573688  25.109965287
Si       5.385191227   4.156129138  27.449807502
Si       6.022341279   2.933442835  30.468939607
Si      10.686840878   2.124710389  26.916623949
Si       5.723152085   0.240356217  17.359388573
Si      10.740472581  10.932088774  16.807232842
Si       6.129225625   5.865158212  23.082929878
Si       1.241339099   2.764065115  29.440665337
Si      10.357861335   5.651575599  23.888294117
Si       6.041930346   5.232370066  20.229290796
Si       3.023499038   4.835854518  25.562255762
Si       5.159498125   8.395082898  17.124856785
Si       2.057515693   8.984801849  21.704125425
Si       0.491756648   4.771635001  16.762921758
Si       4.273807588   2.071918810  25.130823337
Si       7.823538587   2.470791758  20.688652349
Si       8.497993410   9.843440893  25.005773531
Si       1.529320528   0.397071326  19.242372476
Si       3.955176970   7.591190958  19.764585779
Si       7.778463489   4.351128368  25.228396545
Si       7.403163973   7.218747922  25.388026406
Si       7.649128047   6.155240997  18.870326724
Si       1.697756199  10.013113313  30.323828838
Si       9.759459734   2.358394111  18.012409495
Si       2.822912711   0.026568661  17.215456166
Si       7.027935225   2.116998902  16.258204834
Si       7.968115655  10.237254434  21.543799684
Si       1.610420928   8.403515783  27.333120404
Si       8.113368852   0.312664854  27.684532429
Si       9.113239417   1.848888579  30.217769144
Si       7.827399158   6.960356785  15.987016989
Si       9.391734494   7.837626638  23.185626985
Si       1.006272705   7.053436790  19.118046670
Si      10.671365146   0.925430046  24.395706991
Si       3.620227702   9.885381070  28.487120525
Si       3.191746594   3.149528278  17.273533271
Si       1.328678415   5.988630604  21.763789278
Si       0.331271479   8.700000906  25.173845320
Si       3.544525726   5.309181265  21.683727967
Si       4.101295746   7.050380281  27.157432622
Si       8.593975349   5.222412054  21.464523103
Si       2.166316363   5.251980512  27.807048388
Si       5.050035379   8.831254577  22.290558701
Si       5.656519638   8.855040686  30.300497427
Si       2.323043011   2.829504227  20.370115449
Si      10.247877311   9.164274608  20.578725496
Si       3.195612624   6.467196789   0.059492014
Si       8.824473765   7.016805930  30.223821783
Si       4.779178840   7.833726050  24.662029003
Si       2.930069901  10.110975030  24.533755194
Si       1.711080935   4.940043850   0.701850895
Si       4.121604198   3.329619774  23.040337640
Si      10.656469880   4.377514843  26.458983037
Si       9.321786298   8.433422620  17.980140295
Si       1.284686064   0.523732980  21.924182003
Si       6.089580073   9.236261614  27.267679206
Si       9.270372370   8.258745791  27.458104739
Si      10.707762000   3.206920337  22.054052976
Si       6.235687395   6.777319124  29.085811121
Si       5.456212675   5.453241616  16.785619099
Si       6.657708961   8.941824308  19.502978431
Si       3.459760216   0.809916972  30.295917477
Si       2.188032395   1.021410187  26.860478648
Si       8.386257260   0.163788254  18.704444216
Si       9.361919857   9.785422535  30.161085827
Si       6.782276450   1.557591362  23.460079363
Si       8.225123483   5.489402030  27.730353780
Si      10.533339860   4.691368903  29.435564823
Si       5.266264107   1.526912355  27.790139958
Si      10.601405435   4.531576678  19.573070333
Si       2.448167788   7.116546693  17.057861799
N        3.855983892   6.532189370  25.431762240
N        4.207545079   6.940146714  16.536056626
N        2.585693214   7.750036085  18.724234179
N       10.789379288   7.355209476  24.179630989
N        8.342480320   9.646955689  26.806557313
N        7.932002401   7.891284263  18.920129489
N        3.337868415   2.786918118  18.962394561
N        1.907287376   9.577715814  28.599636460
N        3.385391596   1.565735720  16.490854057
N        3.358521963   0.645146364  25.539371176
N       10.089176376   5.849486843  30.634421559
N        1.992839253  10.240497624  23.005686242
N        8.828211086   0.388225844  29.262323483
N        8.800812981   2.038012395  16.528636140
N        6.450145720   9.333730061  21.260636234
N        1.086565431   6.181328296  17.571210075
N        9.252090191   6.214587549  22.656937588
N        9.424512256   7.468093282  16.540271360
N        3.566112679   4.399761919  27.177903265
N        6.669394649   8.399885711  16.158531338
N        6.501811300   8.482949637  28.803017664
N        1.139932033   1.750961943  28.062107291
N        7.713263514   5.935264499  29.343516945
N        2.413418772   2.278864098  30.592764689
N        1.404060745  10.219294696  16.381918335
N        7.106813339   5.845193677  17.202363670
N        5.969145900   1.919268816  17.703997434
N       10.213150633  10.089636393  24.627690641
N        7.215929864   4.355382755  26.896125539
N        8.923599386  10.267303225  20.107431323
N        8.326758455   6.953558232  26.812192691
N        6.042785201   8.158138148  25.851430486
N        0.824601196   1.265912504  25.745596577
N        6.456842009   0.426473048  15.790484759
N        5.064297624   1.906771919  23.517637169
N        0.076324789  10.361363076  30.766416048
N        1.352753164   5.061603581  26.189095211
N        0.524109377   3.175749875  20.449373466
N        9.004143131   5.345360861  19.759358656
N        7.677010602   2.719398537  30.785920659
N        0.256646627   1.150535994  18.173681948
N        1.933915681   3.874078271  16.387144438
N        4.742773467   4.908432196  22.906263393
N        9.320238021   9.106771900  22.070219425
N        2.478987315   6.969829121  27.879338764
N       10.437146339   3.930421337  17.967066619
N        2.256861606   1.170565904  20.665704853
N        3.692167584   8.643147596  21.170944240
N        7.007264951   5.732032950  24.549751963
N        6.954726361   5.573998650  21.633893158
N        3.287136308   3.428743331  24.570442299
N        9.565464437   4.696140691  25.131620077
N       10.663648382   5.248559044  15.291723692
N        1.016453151   7.684575606  21.634762411
N        4.411489030   5.955763443  20.311513919
N        5.568238458   2.934943806  28.838603481
N        7.598127023   2.870190072  24.358598775
N        4.678569054   4.201059558  17.561839759
N        6.553325636   9.606655037  31.556086283
N        3.654197294   0.814874869  28.260838514
N        9.439216404   8.320311945  29.170210728
N        7.565592411   0.357942951  24.536270507
N       10.844294953   8.277632199  26.832739664
N        0.245978113   1.604127279  22.790496322
N        3.174529283   3.570618381  21.620702218
N        5.477566123   7.090953075  30.612916430
N        5.306543644   6.001047764  27.916114877
N        4.355467541   9.979892884  17.072772904
N        5.400002016   4.142099481  31.597040814
N       10.586006215   8.191320166  19.152154681
N        8.951090844   1.597546100  26.841749766
N        6.737776798  10.435467513  18.601777757
N        6.218455461   3.421364068  20.128181143
N        4.308641974   8.858949379  27.352166152
N        0.889390616  10.113351923  20.655414039
N        5.300468014   8.101744141  18.839394174
N        9.309973451  10.116146442  17.475037136
N        0.541361838   4.708856305  22.842775539
N        5.457065849   5.259848980  15.098726079
N        9.884665051   5.058915649  27.898158990
N       10.379901045   2.974168799  29.806172417
N        1.398181802   4.507482714  29.148905534
N        1.972527846   9.097820105  25.620520457
N        8.969026820   3.500738830  21.678537458
N        4.384169068   9.963448433  30.022483330
N        8.184546223   8.315099811  24.323251190
N        8.558731089   1.894908280  19.193827163
N        7.457352930   1.126560867  21.853564583
N        4.333682574   9.367383705  23.882496294
N        9.451021593   1.406977172  31.861587279
N        5.234522403   2.546551468  26.424473200
N        4.972904815   1.499324295  31.347753983
N        5.504298217   7.419313817  23.140439883
N        0.932266321   5.651373219  20.091173053
N        6.353416914   0.172007529  27.611867716
N        1.678646905   7.680696962  15.612418931
