&control
   calculation='scf',
   restart_mode='from_scratch',
   prefix='Si3N4'
   wf_collect=.true.
   pseudo_dir='./',
   outdir='./',
/
&system
   ibrav = 1,
   celldm(1)=15.7801958, 
   nat=56, 
   ntyp=2,
   ecutwfc = 60,
   nbnd = 250,
   nosym=.true.
/
&electrons
   mixing_beta = 0.7
/
ATOMIC_SPECIES
N   14.00674 N_ONCV_PBE-1.0.upf
Si  28.0855  Si_ONCV_PBE-1.1.upf
ATOMIC_POSITIONS {angstrom}
Si       0.069875079   1.800064096   3.827509953              
Si      -1.648817973  -2.205375807  -1.190241385              
Si      -3.922338970  -2.103672153   3.112474239              
Si      -0.011997152   0.903104944   0.868499587              
Si      -3.336108049   1.732281966   0.498998674              
Si       0.158931450  -2.006269054   2.431744553              
Si      -1.288497926   3.231754943  -0.826542345              
Si       3.798386347   0.836400085  -2.278031318              
Si       2.839207452   0.024535544   3.927015846              
Si       2.125367996   2.363460161   2.176349423              
Si      -2.717765504   1.294610861   3.465549195              
Si       2.134242207   3.345328207  -3.189523139              
Si      -1.513492595   3.422201157   1.998872280              
Si       0.302322289  -3.343832506  -3.245104533              
Si      -2.787053336  -3.958068295  -2.854247990              
Si      -1.232143027  -1.192386785  -3.693884802              
Si      -3.791566201  -2.732832686   0.215993820              
Si       4.232708496   3.897788539   3.051661886              
Si      -1.723773450   1.018281815  -1.942776424
Si       2.252863380   2.067040741  -0.256475222
Si      -2.079662608  -0.776398950   1.682691335
Si       3.139992058  -2.196678363  -1.952914149
Si       0.548420958  -3.650054490   0.677013254
Si       2.379300604  -0.995310577   0.970458580
N       -2.659563971   3.017444255   3.224340320
N        3.246311020  -0.931353165   2.574728989
N        1.388909851  -2.322085138   1.311657844
N       -0.627090674   1.599671183  -0.668875847
N       -0.585686547  -3.526867696   2.041077393
N       -2.381811665   3.230512253   0.507803312
N        2.946180975  -0.671642233  -2.777509857
N       -1.275157178   0.841954506  -3.854241055
N       -3.570048585  -3.101847857  -1.507803841
N        0.434654449   3.254363311  -3.583027422
N        1.619389814   0.509535031   0.388650550
N        2.670670179   2.172857196  -1.945425640
N       -4.052730409  -3.279726400   1.820788860
N        2.714734594   3.325077981   3.473539905
N       -0.448848486  -3.562281730  -0.756559839
N       -2.135722549   2.914475181  -2.273667512
N        3.260278434  -1.707564767  -0.288696914
N       -4.105368072   1.014543354  -3.942763796
N        1.375250391   3.223303367   0.660259569
N       -3.352741051   0.895793477  -1.059310864
N        0.359742766  -1.816201238   4.112051715
N       -2.378380085  -1.792510385   0.356722752
N       -3.939498950  -3.323245957  -3.997387488
N       -2.779778207   0.751674922   1.793232630
N        3.468255089   2.151860109   1.019875988
N       -1.399640520  -2.921210326  -2.971524468
N       -2.410501653  -1.334677635   3.312879187
N        1.564591095   1.041701410   3.371030973
N       -0.353197475   2.115995385   2.173956185
N       -0.426695776  -0.540589983   1.696523638
N       -1.360195699  -0.717701229  -2.017395428
N        1.949320917  -3.388061751  -2.513512047
