&CONTROL
         calculation = 'scf',
        restart_mode = 'from_scratch',
              prefix = './si2h6',
          pseudo_dir = '~/PseudoPotential/upf',
              outdir = './',
          wf_collect = .true.,
/
&SYSTEM
               ibrav = 1,
           celldm(1) = 30,
                 nat = 8,
                ntyp = 2,
             ecutwfc = 85,
               nosym = .true.,
                nbnd = 100,
     assume_isolated = 'mp',
/
&ELECTRONS
            conv_thr = 1.0d-6,
         mixing_mode = 'plain',
         mixing_beta = 0.40d0,
    electron_maxstep = 70,
/
ATOMIC_SPECIES
Si   1.00   Si_ONCV_PBE-1.0.upf
 H   1.00    H_ONCV_PBE-1.0.upf
ATOMIC_POSITIONS {Angstrom}
Si    .000000    .000000    1.167683
Si    .000000    .000000    -1.167683
H    .000000    1.393286    1.686020
H    -1.206621    -.696643    1.686020
H    1.206621    -.696643    1.686020
H    .000000    -1.393286    -1.686020
H    -1.206621    .696643    -1.686020
H    1.206621    .696643    -1.686020
