&CONTROL
         calculation = 'scf',
        restart_mode = 'from_scratch',
              prefix = './ch3oh',
          pseudo_dir = '~/PseudoPotential/upf',
              outdir = './',
          wf_collect = .true.,
/
&SYSTEM
               ibrav = 1,
           celldm(1) = 30,
                 nat = 6,
                ntyp = 3,
             ecutwfc = 85,
               nosym = .true.,
                nbnd = 100,
     assume_isolated = 'mp',
/
&ELECTRONS
            conv_thr = 1.0d-6,
         mixing_mode = 'plain',
         mixing_beta = 0.40d0,
    electron_maxstep = 70,
/
ATOMIC_SPECIES
 C   1.00    C_ONCV_PBE-1.0.upf
 O   1.00    O_ONCV_PBE-1.0.upf
 H   1.00    H_ONCV_PBE-1.0.upf
ATOMIC_POSITIONS {Angstrom}
C    -.047131    .664389    .000000
O    -.047131    -.758551    .000000
H    -1.092995    .969785    .000000
H    .878534    -1.048458    .000000
H    .437145    1.080376    .891772
H    .437145    1.080376    -.891772
