&CONTROL
         calculation = 'scf',
        restart_mode = 'from_scratch',
              prefix = './h2co',
          pseudo_dir = '~/PseudoPotential/upf',
              outdir = './',
          wf_collect = .true.,
/
&SYSTEM
               ibrav = 1,
           celldm(1) = 30,
                 nat = 4,
                ntyp = 3,
             ecutwfc = 85,
               nosym = .true.,
                nbnd = 100,
     assume_isolated = 'mp',
/
&ELECTRONS
            conv_thr = 1.0d-6,
         mixing_mode = 'plain',
         mixing_beta = 0.40d0,
    electron_maxstep = 70,
/
ATOMIC_SPECIES
 O   1.00    O_ONCV_PBE-1.0.upf
 C   1.00    C_ONCV_PBE-1.0.upf
 H   1.00    H_ONCV_PBE-1.0.upf
ATOMIC_POSITIONS {Angstrom}
O    .000000    .000000    .683501
C    .000000    .000000    -.536614
H    .000000    .934390    -1.124164
H    .000000    -.934390    -1.124164
