&CONTROL
         calculation = 'scf',
        restart_mode = 'from_scratch',
              prefix = './ch3sh',
          pseudo_dir = '~/PseudoPotential/upf',
              outdir = './',
          wf_collect = .true.,
/
&SYSTEM
               ibrav = 1,
           celldm(1) = 30,
                 nat = 6,
                ntyp = 3,
             ecutwfc = 85,
               nosym = .true.,
                nbnd = 100,
     assume_isolated = 'mp',
/
&ELECTRONS
            conv_thr = 1.0d-6,
         mixing_mode = 'plain',
         mixing_beta = 0.40d0,
    electron_maxstep = 70,
/
ATOMIC_SPECIES
 C   1.00    C_ONCV_PBE-1.0.upf
 S   1.00    S_ONCV_PBE-1.0.upf
 H   1.00    H_ONCV_PBE-1.0.upf
ATOMIC_POSITIONS {Angstrom}
C    -.047953    1.149519    .000000
S    -.047953    -.664856    .000000
H    1.283076    -.823249    .000000
H    -1.092601    1.461428    .000000
H    .432249    1.551207    .892259
H    .432249    1.551207    -.892259
