&CONTROL
         calculation = 'scf',
        restart_mode = 'from_scratch',
              prefix = './c4h4s',
          pseudo_dir = '~/PseudoPotential/upf',
              outdir = './',
          wf_collect = .true.,
/
&SYSTEM
               ibrav = 1,
           celldm(1) = 30,
                 nat = 9,
                ntyp = 3,
             ecutwfc = 85,
               nosym = .true.,
                nbnd = 100,
     assume_isolated = 'mp',
/
&ELECTRONS
            conv_thr = 1.0d-6,
         mixing_mode = 'plain',
         mixing_beta = 0.40d0,
    electron_maxstep = 70,
/
ATOMIC_SPECIES
 S   1.00    S_ONCV_PBE-1.0.upf
 C   1.00    C_ONCV_PBE-1.0.upf
 H   1.00    H_ONCV_PBE-1.0.upf
ATOMIC_POSITIONS {Angstrom}
S    .000000    .000000    1.189753
C    .000000    1.233876    -.001474
C    .000000    -1.233876    -.001474
C    .000000    .709173    -1.272322
C    .000000    -.709173    -1.272322
H    .000000    2.275343    .291984
H    .000000    -2.275343    .291984
H    .000000    1.321934    -2.167231
H    .000000    -1.321934    -2.167231
