&CONTROL
         calculation = 'scf',
        restart_mode = 'from_scratch',
              prefix = './ch3cl',
          pseudo_dir = '~/PseudoPotential/upf',
              outdir = './',
          wf_collect = .true.,
/
&SYSTEM
               ibrav = 1,
           celldm(1) = 30,
                 nat = 5,
                ntyp = 3,
             ecutwfc = 85,
               nosym = .true.,
                nbnd = 100,
     assume_isolated = 'mp',
/
&ELECTRONS
            conv_thr = 1.0d-6,
         mixing_mode = 'plain',
         mixing_beta = 0.40d0,
    electron_maxstep = 70,
/
ATOMIC_SPECIES
 C   1.00    C_ONCV_PBE-1.0.upf
Cl   1.00   Cl_ONCV_PBE-1.0.upf
 H   1.00    H_ONCV_PBE-1.0.upf
ATOMIC_POSITIONS {Angstrom}
C    .000000    .000000    -1.121389
Cl    .000000    .000000    .655951
H    .000000    1.029318    -1.474280
H    .891415    -.514659    -1.474280
H    -.891415    -.514659    -1.474280
